coords = array2d(1..73, 1..2, [559, 912, 254, 146, 377, 831, 934, 139, 266,
    883, 863, 266, 459, 811, 279, 365, 65, 152, 673, 875, 3, 656, 863,
    278, 201, 10, 558, 539, 998, 75, 246, 85, 525, 215, 250, 240, 631,
    411, 504, 790, 849, 264, 20, 272, 67, 93, 935, 786, 695, 267, 818,
    386, 244, 250, 406, 597, 344, 86, 620, 790, 618, 199, 935, 509,
    402, 970, 664, 408, 590, 886, 27, 961, 253, 620, 359, 409, 397,
    405, 870, 564, 826, 458, 33, 404, 622, 771, 599, 163, 189, 325,
    973, 831, 441, 57, 302, 917, 374, 787, 285, 357, 89, 494, 811,
    542, 273, 338, 866, 511, 992, 316, 244, 680, 17, 207, 339, 43,
    510, 495, 873, 66, 975, 778, 797, 625, 290, 113, 304, 104, 317,
    783, 571, 326, 610, 419, 67, 295, 505, 230, 878, 1, 230, 909, 68,
    739, 657, 278]);

n = 73;

